{"js":{"..\/themes\/v1\/js\/bootstrap.js":1443771135,"..\/themes\/v1\/js\/materialize.min.js":1443771135,"..\/themes\/v1\/js\/js-function.js":1445418252,"..\/themes\/v1\/js\/js_test.js":1444964593,"..\/themes\/v1\/js\/prefixfree.min.js":1445021716},"css":{"..\/themes\/v1\/css\/reset.css":1445047777,"..\/themes\/v1\/css\/vnpu_v1.css":1445564685,"..\/themes\/v1\/css\/bootstrap.css":1443771131,"..\/themes\/v1\/css\/style_library.css":1444361855,"..\/themes\/v1\/css\/style_test.css":1444796772,"..\/themes\/v1\/css\/style_login.css":1445333032,"..\/themes\/v1\/css\/materialize.css":1443771131,"..\/themes\/v1\/css\/jquery.fancybox.css":1443771131}}